
Value of objective function: 1.24941846

Actual values of the variables:
pL1_div_from_law          1.24942
comp_pos0                0.207217
comp_neg0                       0
comp_pos1                0.182239
comp_neg1                       0
comp_pos2               0.0988077
comp_neg2                       0
comp_pos3               0.0450879
comp_neg3                       0
comp_pos4                0.101827
comp_neg4                       0
comp_pos5                       0
comp_neg5                       0
comp_pos6                0.352291
comp_neg6                       0
comp_pos7                0.116559
comp_neg7                       0
comp_pos8                0.121944
comp_neg8                       0
comp_pos9                       0
comp_neg9                       0
comp_pos10              0.0234467
comp_neg10                      0
comp_pos11                      0
comp_neg11                      0
comp_pos12                      0
comp_neg12                      0
comp_pos13                      0
comp_neg13                      0
z_c0_t0               1.32138e+10
p0_c0_t0              1.15763e+09
p1_c0_t0               1.0423e+08
p2_c0_t0              1.43521e+10
p3_c0_t0              3.38013e+08
diff0                 2.73813e+09
normdiff0                0.207217
z_c0_t1               1.47752e+10
p0_c0_t1              9.95862e+08
p1_c0_t1              1.16885e+08
p2_c0_t1              1.59668e+10
p3_c0_t1              3.88247e+08
diff1                 2.69262e+09
normdiff1                0.182239
z_c1_t0               1.65566e+10
p0_c1_t0              1.17045e+09
p1_c1_t0              1.33926e+08
p2_c1_t0                1.674e+10
p3_c1_t0              1.48121e+08
diff2                 1.63592e+09
normdiff2               0.0988077
z_c1_t1               1.94959e+10
p0_c1_t1              1.16778e+09
p1_c1_t1              1.90527e+08
p2_c1_t1              1.88779e+10
p3_c1_t1              1.38691e+08
diff3                 8.79028e+08
normdiff3               0.0450879
z_c2_t0               7.24754e+09
p0_c2_t0              3.99345e+08
p1_c2_t0              5.46506e+07
p2_c2_t0               7.4006e+09
p3_c2_t0              1.30936e+08
diff4                 7.37993e+08
normdiff4                0.101827
z_c2_t1               7.97123e+09
p0_c2_t1              3.20943e+08
p1_c2_t1              6.38795e+07
p2_c2_t1              7.47829e+09
p3_c2_t1              1.08116e+08
diff5                           0
normdiff5                       0
z_c3_t0               1.22612e+10
p0_c3_t0               7.2251e+08
p1_c3_t0              9.34316e+07
p2_c3_t0              1.52107e+10
p3_c3_t0              5.54032e+08
diff6                  4.3195e+09
normdiff6                0.352291
z_c3_t1               1.42798e+10
p0_c3_t1              8.09056e+08
p1_c3_t1              9.56852e+07
p2_c3_t1              1.46337e+10
p3_c3_t1              4.05733e+08
diff7                 1.66443e+09
normdiff7                0.116559
z_c4_t0               7.97197e+09
p0_c4_t0              3.18898e+08
p1_c4_t0              1.04551e+08
p2_c4_t0              8.41554e+09
p3_c4_t0              1.05118e+08
diff8                 9.72135e+08
normdiff8                0.121944
z_c4_t1                8.9819e+09
p0_c4_t1              3.26456e+08
p1_c4_t1              9.62536e+07
p2_c4_t1              8.49501e+09
p3_c4_t1              6.41758e+07
diff9                           0
normdiff9                       0
z_c5_t0               1.00642e+10
p0_c5_t0              5.62365e+08
p1_c5_t0              8.73435e+07
p2_c5_t0               9.6001e+09
p3_c5_t0              5.03208e+07
diff10                2.35971e+08
normdiff10              0.0234467
z_c5_t1                1.2016e+10
p0_c5_t1              4.10794e+08
p1_c5_t1              8.73811e+07
p2_c5_t1              1.13964e+10
p3_c5_t1              1.21466e+08
diff11                          0
normdiff11                      0
z_c6_t0               1.81204e+10
p0_c6_t0              1.02683e+09
p1_c6_t0              1.11448e+08
p2_c6_t0              1.68178e+10
p3_c6_t0              1.64267e+08
diff12                          0
normdiff12                      0
z_c6_t1               2.06345e+10
p0_c6_t1              1.09308e+09
p1_c6_t1              1.03172e+08
p2_c6_t1              1.93351e+10
p3_c6_t1              1.03172e+08
diff13                          0
normdiff13                      0
